GLPSOL--GLPK LP/MIP Solver 5.0
Parameter(s) specified in the command line:
 --lp ../modeles/20_94.lp --log 20_94.log
Reading problem data from '../modeles/20_94.lp'...
1961 rows, 3800 columns, 13220 non-zeros
1880 integer variables, all of which are binary
5787 lines were read
GLPK Integer Optimizer 5.0
1961 rows, 3800 columns, 13220 non-zeros
1880 integer variables, all of which are binary
Preprocessing...
1880 constraint coefficient(s) were reduced
1961 rows, 3780 columns, 13200 non-zeros
1880 integer variables, all of which are binary
Scaling...
 A: min|aij| =  1.811e-03  max|aij| =  4.000e+00  ratio =  2.209e+03
GM: min|aij| =  1.459e-01  max|aij| =  6.856e+00  ratio =  4.700e+01
EQ: min|aij| =  2.128e-02  max|aij| =  1.000e+00  ratio =  4.700e+01
2N: min|aij| =  1.449e-02  max|aij| =  1.704e+00  ratio =  1.177e+02
Constructing initial basis...
Size of triangular part is 1961
Solving LP relaxation...
GLPK Simplex Optimizer 5.0
1961 rows, 3780 columns, 13200 non-zeros
      0: obj =   4.000000000e+01 inf =   9.950e+01 (41)
Perturbing LP to avoid stalling [199]...
    259: obj =  -8.068207569e-01 inf =   0.000e+00 (0)
Removing LP perturbation [772]...
*   772: obj =  -4.457446809e+00 inf =   0.000e+00 (0) 1
OPTIMAL LP SOLUTION FOUND
Integer optimization begins...
Long-step dual simplex will be used
+   772: mip =     not found yet >=              -inf        (1; 0)
+   794: >>>>>  -4.455082742e+00 >=  -4.457446809e+00 < 0.1% (6; 0)
+   799: >>>>>  -4.457446809e+00 >=  -4.457446809e+00   0.0% (6; 1)
+   799: mip =  -4.457446809e+00 >=     tree is empty   0.0% (0; 13)
INTEGER OPTIMAL SOLUTION FOUND
Time used:   0.1 secs
Memory used: 5.8 Mb (6093004 bytes)
